data/solutions/recovery/wellformed/moderate/flexible/wellformed_moderate_instance64/4.sol
Elapsed time: 19.05
Upper bound: 4861.0
Planning weighted value: 131836.0
C[0]=4861.0
C[1]=4861.0
C[2]=4861.0
C[3]=4861.0
C[4]=0.0
y[0]=2
y[1]=3
y[2]=3
y[3]=2
y[4]=1
y[5]=1
y[6]=0
y[7]=1
y[8]=0
y[9]=0
y[10]=1
y[11]=0
y[12]=2
y[13]=1
y[14]=3
y[15]=1
y[16]=2
y[17]=1
y[18]=3
y[19]=3
y[20]=2
y[21]=3
y[22]=1
y[23]=0
y[24]=3
y[25]=0
y[26]=0
y[27]=1
y[28]=2
y[29]=1
y[30]=1
y[31]=2
y[32]=2
y[33]=0
y[34]=1
y[35]=1
y[36]=1
y[37]=2
y[38]=0
y[39]=2
y[40]=1
