data/solutions/recovery/wellformed/moderate/flexible/wellformed_moderate_instance64/4.log

Log started (V12.6.3.0) Fri Apr 20 19:52:12 2018

New value for default parallel thread count: 1

Problem '/tmp/tmpbd_tII.pyomo.lp' read.
Read time = 0.00 sec. (0.08 ticks)

Problem name         : /tmp/tmpbd_tII.pyomo.lp
Objective sense      : Minimize
Variables            :     212  [Nneg: 1,  Binary: 205,  General Integer: 6]
Objective nonzeros   :       1
Linear constraints   :      94  [Less: 46,  Equal: 48]
  Nonzeros           :    5695
  RHS nonzeros       :      83

Variables            : Min LB: 0.000000         Max UB: 1.000000       
Objective nonzeros   : Min   : 1.000000         Max   : 1.000000       
Linear constraints   :
  Nonzeros           : Min   : 1.000000         Max   : 1963.000       
  RHS nonzeros       : Min   : 1.000000         Max   : 5.000000       
Tried aggregator 2 times.
MIP Presolve eliminated 45 rows and 56 columns.
Aggregator did 7 substitutions.
Reduced MIP has 42 rows, 149 columns, and 387 nonzeros.
Reduced MIP has 148 binaries, 1 generals, 0 SOSs, and 0 indicators.
Presolve time = 0.00 sec. (1.42 ticks)
Found incumbent of value 19444.000000 after 0.00 sec. (1.72 ticks)
Probing time = 0.00 sec. (0.12 ticks)
Cover probing fixed 0 vars, tightened 6 bounds.
Tried aggregator 1 time.
Reduced MIP has 42 rows, 149 columns, and 387 nonzeros.
Reduced MIP has 148 binaries, 1 generals, 0 SOSs, and 0 indicators.
Presolve time = 0.00 sec. (0.27 ticks)
Probing time = 0.00 sec. (0.08 ticks)
Clique table members: 37.
MIP emphasis: balance optimality and feasibility.
MIP search method: dynamic search.
Parallel mode: none, using 1 thread.
Root relaxation solution time = 0.00 sec. (0.12 ticks)

        Nodes                                         Cuts/
   Node  Left     Objective  IInf  Best Integer    Best Bound    ItCnt     Gap

*     0+    0                        19444.0000     1963.0000            89.90%
      0     0     4861.0000     5    19444.0000     4861.0000        6   75.00%
*     0+    0                         6045.0000     4861.0000            19.59%
      0     0     4861.0000     8     6045.0000       Cuts: 5       13   19.59%
*     0+    0                         5185.0000     4861.0000             6.25%
      0     0     4861.0000     6     5185.0000       Cuts: 2       17    6.25%
*     0+    0                         5108.0000     4861.0000             4.84%
      0     0     4861.0000    10     5108.0000    MIRcuts: 2       18    4.84%
*     0+    0                         5104.0000     4861.0000             4.76%
*     0+    0                         4980.0000     4861.0000             2.39%
*     0+    0                         4962.0000     4861.0000             2.04%
*     0+    0                         4955.0000     4861.0000             1.90%
      0     2     4861.0000     5     4955.0000     4861.0000       18    1.90%
Elapsed time = 0.01 sec. (8.22 ticks, tree = 0.01 MB, solutions = 8)
*    15    15      integral     0     4939.0000     4861.0000       58    1.58%
*    18    16      integral     0     4914.0000     4861.0000       63    1.08%
*    20+   13                         4910.0000     4861.0000             1.00%
*    95    47      integral     0     4898.0000     4861.0000      278    0.76%
*   746   435      integral     0     4891.0000     4861.0000     1564    0.61%
*   973   489      integral     0     4871.0000     4861.0000     2063    0.21%
*  1073+  535                         4870.0000     4861.0000             0.18%
*  1386+  362                         4866.0000     4861.0000             0.10%
   2152   516     4861.0000     6     4866.0000     4861.0000     4084    0.10%
   2153   517     4861.0000     5     4866.0000     4861.0000     4086    0.10%
   2154   518     4861.0000     5     4866.0000     4861.0000     4087    0.10%
   2155   519     4861.0000     6     4866.0000     4861.0000     4089    0.10%
   2156   520     4861.0000     6     4866.0000     4861.0000     4090    0.10%
   2157   521     4865.0000     3     4866.0000     4861.0000     4095    0.10%
   2158   521     4865.0000     4     4866.0000     4861.0000     4097    0.10%
   2159   521     4865.0000     3     4866.0000     4861.0000     4098    0.10%
   2160   520        cutoff           4866.0000     4861.0000     4099    0.10%
*  2486+  670                         4865.0000     4861.0000             0.08%
*  2986+  919                         4864.0000     4861.0000             0.06%
   8270  3046        cutoff           4864.0000     4861.0000    15944    0.06%
Elapsed time = 1.26 sec. (962.03 ticks, tree = 0.91 MB, solutions = 18)
  21149  8077     4861.0000     6     4864.0000     4861.0000    42391    0.06%
  21150  8077     4861.0000     7     4864.0000     4861.0000    42395    0.06%
  21151  8078     4861.0000     6     4864.0000     4861.0000    42398    0.06%
  21152  8079     4861.0000     6     4864.0000     4861.0000    42400    0.06%
  21153  8080     4861.0000     6     4864.0000     4861.0000    42401    0.06%
  21154  8079        cutoff           4864.0000     4861.0000    42402    0.06%
  21155  8078        cutoff           4864.0000     4861.0000    42406    0.06%
  21156  8077        cutoff           4864.0000     4861.0000    42411    0.06%
  21157  8078     4861.0000     5     4864.0000     4861.0000    42412    0.06%
  21158  8079     4861.0000     5     4864.0000     4861.0000    42413    0.06%
Elapsed time = 2.57 sec. (1916.22 ticks, tree = 2.36 MB, solutions = 18)
* 29008  9029      integral     0     4862.0000     4861.0000    59597    0.02%
  36148  9577     4861.0000     6     4862.0000     4861.0000    75141    0.02%
  36149  9576    infeasible           4862.0000     4861.0000    75145    0.02%
  36150  9575    infeasible           4862.0000     4861.0000    75148    0.02%
  36151  9576     4861.0000     6     4862.0000     4861.0000    75149    0.02%
  36152  9575    infeasible           4862.0000     4861.0000    75152    0.02%
  36153  9576     4861.0000     8     4862.0000     4861.0000    75154    0.02%
  36154  9577     4861.0000     6     4862.0000     4861.0000    75156    0.02%
  36155  9576    infeasible           4862.0000     4861.0000    75158    0.02%
  36156  9575    infeasible           4862.0000     4861.0000    75162    0.02%
  36157  9574    infeasible           4862.0000     4861.0000    75166    0.02%
Elapsed time = 3.82 sec. (2870.88 ticks, tree = 3.00 MB, solutions = 19)
  50501 11109     4861.0000     6     4862.0000     4861.0000   107343    0.02%
  50502 11110     4861.0000     6     4862.0000     4861.0000   107344    0.02%
  50503 11109    infeasible           4862.0000     4861.0000   107348    0.02%
  50504 11108    infeasible           4862.0000     4861.0000   107352    0.02%
  50505 11109     4861.0000     6     4862.0000     4861.0000   107356    0.02%
  50506 11108    infeasible           4862.0000     4861.0000   107357    0.02%
  50507 11107    infeasible           4862.0000     4861.0000   107358    0.02%
  50508 11106    infeasible           4862.0000     4861.0000   107366    0.02%
  50509 11105    infeasible           4862.0000     4861.0000   107371    0.02%
  50510 11104    infeasible           4862.0000     4861.0000   107373    0.02%
Elapsed time = 5.05 sec. (3825.33 ticks, tree = 3.43 MB, solutions = 19)
  65820 13548    infeasible           4862.0000     4861.0000   140062    0.02%
  65821 13547    infeasible           4862.0000     4861.0000   140063    0.02%
  65822 13546    infeasible           4862.0000     4861.0000   140063    0.02%
  65823 13545    infeasible           4862.0000     4861.0000   140063    0.02%
  65824 13544    infeasible           4862.0000     4861.0000   140066    0.02%
  65825 13545     4861.0000     6     4862.0000     4861.0000   140067    0.02%
  65826 13546     4861.0000     8     4862.0000     4861.0000   140069    0.02%
  65827 13547     4861.0000     6     4862.0000     4861.0000   140070    0.02%
  65828 13548     4861.0000     8     4862.0000     4861.0000   140072    0.02%
  65829 13549     4861.0000     6     4862.0000     4861.0000   140073    0.02%
Elapsed time = 6.29 sec. (4779.84 ticks, tree = 4.10 MB, solutions = 19)
  81316 14985    infeasible           4862.0000     4861.0000   172400    0.02%
  81317 14984    infeasible           4862.0000     4861.0000   172400    0.02%
  81318 14983    infeasible           4862.0000     4861.0000   172401    0.02%
  81319 14982    infeasible           4862.0000     4861.0000   172401    0.02%
  81320 14981    infeasible           4862.0000     4861.0000   172408    0.02%
  81321 14980    infeasible           4862.0000     4861.0000   172408    0.02%
  81322 14979    infeasible           4862.0000     4861.0000   172408    0.02%
  81323 14978    infeasible           4862.0000     4861.0000   172413    0.02%
  81324 14977    infeasible           4862.0000     4861.0000   172416    0.02%
  81325 14976    infeasible           4862.0000     4861.0000   172422    0.02%
Elapsed time = 7.52 sec. (5734.15 ticks, tree = 4.49 MB, solutions = 19)
  96308 16131    infeasible           4862.0000     4861.0000   203405    0.02%
  96309 16130    infeasible           4862.0000     4861.0000   203410    0.02%
  96310 16129    infeasible           4862.0000     4861.0000   203415    0.02%
  96311 16128    infeasible           4862.0000     4861.0000   203419    0.02%
  96312 16127    infeasible           4862.0000     4861.0000   203419    0.02%
  96313 16126    infeasible           4862.0000     4861.0000   203424    0.02%
  96314 16125    infeasible           4862.0000     4861.0000   203424    0.02%
  96315 16124    infeasible           4862.0000     4861.0000   203432    0.02%
  96316 16123    infeasible           4862.0000     4861.0000   203434    0.02%
  96317 16122    infeasible           4862.0000     4861.0000   203438    0.02%
Elapsed time = 8.76 sec. (6688.78 ticks, tree = 4.80 MB, solutions = 19)
 111377 19050     4861.0000     7     4862.0000     4861.0000   235234    0.02%
 111378 19051     4861.0000     7     4862.0000     4861.0000   235235    0.02%
 111379 19052     4861.0000     8     4862.0000     4861.0000   235238    0.02%
 111380 19053     4861.0000     6     4862.0000     4861.0000   235240    0.02%
 111381 19054     4861.0000     5     4862.0000     4861.0000   235241    0.02%
 111382 19055     4861.0000     6     4862.0000     4861.0000   235242    0.02%
 111383 19056     4861.0000     6     4862.0000     4861.0000   235243    0.02%
 111384 19057     4861.0000     6     4862.0000     4861.0000   235244    0.02%
 111385 19058     4861.0000     6     4862.0000     4861.0000   235245    0.02%
 111386 19057    infeasible           4862.0000     4861.0000   235247    0.02%
Elapsed time = 10.00 sec. (7642.82 ticks, tree = 6.06 MB, solutions = 19)
 126057 21669     4861.0000     6     4862.0000     4861.0000   267707    0.02%
 126058 21670     4861.0000     6     4862.0000     4861.0000   267708    0.02%
 126059 21671     4861.0000     6     4862.0000     4861.0000   267709    0.02%
 126060 21672     4861.0000     6     4862.0000     4861.0000   267710    0.02%
 126061 21673     4861.0000     6     4862.0000     4861.0000   267712    0.02%
 126062 21674     4861.0000     8     4862.0000     4861.0000   267714    0.02%
 126063 21675     4861.0000     6     4862.0000     4861.0000   267715    0.02%
 126064 21676     4861.0000     8     4862.0000     4861.0000   267717    0.02%
 126065 21675    infeasible           4862.0000     4861.0000   267721    0.02%
 126066 21674    infeasible           4862.0000     4861.0000   267723    0.02%
Elapsed time = 11.24 sec. (8596.93 ticks, tree = 6.76 MB, solutions = 19)
 139533 23935    infeasible           4862.0000     4861.0000   300528    0.02%
 139534 23934    infeasible           4862.0000     4861.0000   300532    0.02%
 139535 23933    infeasible           4862.0000     4861.0000   300534    0.02%
 139536 23932    infeasible           4862.0000     4861.0000   300534    0.02%
 139537 23931    infeasible           4862.0000     4861.0000   300542    0.02%
 139538 23930    infeasible           4862.0000     4861.0000   300542    0.02%
 139539 23929    infeasible           4862.0000     4861.0000   300542    0.02%
 139540 23928    infeasible           4862.0000     4861.0000   300546    0.02%
 139541 23927    infeasible           4862.0000     4861.0000   300550    0.02%
 180964 28116    infeasible           4862.0000     4861.0000   399542    0.02%
Elapsed time = 16.17 sec. (12411.75 ticks, tree = 8.47 MB, solutions = 19)
*211612     0      integral     0     4861.0000     4861.0000   465783    0.00%

Root node processing (before b&c):
  Real time             =    0.01 sec. (8.27 ticks)
Sequential b&c:
  Real time             =   18.87 sec. (14479.26 ticks)
                          ------------
Total (root+branch&cut) =   18.89 sec. (14487.53 ticks)

Solution pool: 20 solutions saved.

MIP - Integer optimal solution:  Objective =  4.8610000000e+03
Solution time =   18.89 sec.  Iterations = 465783  Nodes = 211613
Deterministic time = 14487.53 ticks  (767.03 ticks/sec)


Incumbent solution written to file '/tmp/tmpnNEVJA.cplex.sol'.
